50

100 26 202
100 32 309
96 17 208
94 20 347
90 44 225
88 19 404
87 15 196
85 38 325
83 32 347
81 6 371
80 8 307
80 39 174
77 34 377
74 33 413
65 30 251
62 2 403
62 24 268
62 22 200
61 3 312
59 13 243
59 15 442
57 9 441
54 13 178
51 25 238
45 18 446
45 6 353
40 15 430
38 1 279
37 19 295
37 8 406
37 7 400
36 6 450
29 2 387
29 2 204
27 10 217
26 4 276
22 3 377
22 3 206
21 11 173
17 3 392
14 5 303
14 2 222
8 3 234
7 4 449
6 1 362
5 1 419
5 1 413
3 2 273
3 1 413
1 1 399
